;; solver : Z3
;; version : Z3 - v 4.11.0  
;; option : model_validate=true 
;; Generated Bug Type : Soundness Bug
(set-logic QF_NRA)
(declare-fun v1 () Real)
(declare-fun v2 () Real)
(declare-fun v3 () Real)
(declare-fun v4 () Real)
(declare-fun v5 () Real)
(declare-fun v6 () Real)
(declare-fun v7 () Real)
(declare-fun v8 () Real)
(declare-fun v9 () Real)
(declare-fun v10 () Real)
(declare-fun v11 () Real)
(declare-fun v12 () Real)
(define-fun assumptions () Bool (and (= (+ (* v10 v2 v3) (* (- 1) v3 v5) (* v2 v3 v5) (* v3 v8) (* (- 2) v2 v3 v8)) 0) (= (+ (* v10 v2 v3) (* v1 v10 v2 v3) (* v1 v10 v12 (* v3 v3)) (* (- 1) v3 v5) (* (- 1) v1 v3 v5) (* v2 v3 v5) (* v1 v2 v3 v5) (* v1 v12 (* v3 v3) v5) (* v3 v8) (* v1 v3 v8) (* (- 2) v2 v3 v8) (* (- 2) v1 v2 v3 v8) (* (- 2) v1 v12 (* v3 v3) v8)) 0) (< (+ (* v10 (* v3 v3) v4) (* (* v3 v3) v4 v5) (* (- 2) (* v3 v3) v4 v8)) 0) (> v3 0) (>= v2 0) (<= v2 1) (> v1 0) (>= v6 0) (>= v9 0) (>= v11 0) (>= (* v6 v9) (* v7 v7)) (>= (* v11 v6) (* v8 v8)) (>= (* v11 v9) (* v10 v10)) (>= (+ (* 2 v10 v7 v8) (* v11 v6 v9)) (+ (* (* v10 v10) v6) (* v11 (* v7 v7)) (* (* v8 v8) v9))) (>= v4 1) (>= (* v11 v4) (* v5 v5))))
(define-fun hypothesis () Bool (= v12 0))
(declare-fun DJf1rt () Real)
(declare-fun Dh46K1 () Real)
(declare-fun LTkMCp () Real)
(assert (<= (- 23.219602582641578) Dh46K1))
(assert (<= Dh46K1 42.4348629429841))
(assert (<= (- 46.281027660381405) LTkMCp))
(assert (<= LTkMCp 3.536249441692057))
(assert (<= (/ Dh46K1 LTkMCp) DJf1rt))
(assert (<= DJf1rt 5.78230027427368))
(assert (and (= (+ (* v10 v2 v3) (* (- 1) v3 v5) (* v2 v3 v5) (* v3 v8) (* (- 2) v2 v3 v8)) 0) (= (+ (* v10 v2 v3) (* v1 v10 v2 v3) (* v1 v10 v12 (* v3 v3)) (* (- 1) v3 v5) (* (- 1) v1 v3 v5) (* v2 v3 v5) (* v1 v2 v3 v5) (* v1 v12 (* v3 v3) v5) (* v3 v8) (* v1 v3 v8) (* (- 2) v2 v3 v8) (* (- 2) v1 v2 v3 v8) (* (- 2) v1 v12 (* v3 v3) v8)) 0) (< (+ (* v10 (* v3 v3) v4) (* (* v3 v3) v4 v5) (* (- 2) (* v3 v3) v4 v8)) 0) (> v3 0) (>= v2 0) (<= v2 1) (> v1 0) (>= v6 0) (>= v9 0) (>= v11 0) (>= (* v6 v9) (* v7 v7)) (>= (* v11 v6) (* v8 v8)) (>= (* v11 v9) (* v10 v10)) (>= (+ (* 2 v10 v7 v8) (* v11 v6 v9)) (+ (* (* v10 v10) v6) (* v11 (* v7 v7)) (* (* v8 v8) v9))) (>= v4 1) (>= (* v11 v4) (* v5 v5))))
(assert (= v12 (+ v1 DJf1rt)))
(check-sat)
(get-model)
(exit)
